
(set-logic ALL) 

(declare-datatype MyList ((Nil) (Cons (head Real) (tail MyList)) )) 
(declare-fun l0 () MyList) 
(declare-fun l1 () MyList) 
(declare-fun l2 () MyList) 
(declare-fun l3 () MyList) 
(declare-fun i0 () Real) 
(declare-fun i1 () Real) 
(assert (or (= l1 Nil) (= l1 Nil)) )
(assert (not (= l2 Nil)) )
(assert (and (= l2 l3) (is-Cons Nil) (= l0 Nil) (= l0 Nil)) )
(assert (or (= l3 Nil) (is-Nil Nil) (= l2 Nil) (= l1 Nil)) )
(assert (= l0 l0) )
(assert (is-Cons Nil) )
(assert (and (is-Nil Nil) (is-Nil l1)) )
(assert (or (= l2 Nil) (is-Cons l3) (= l1 l1)) )
(check-sat)
